usps/priority-mail-express-retail/priority-mail-express-retail.smt2
(set-logic  QF_LRA)
(declare-const weight Real)
(declare-const zone Real)
(declare-const fees Real)
(declare-const max Real)
(assert (= fees (ite (= weight 0.5) (ite (= zone 1) 31.4 (ite (= zone 2) 31.65 (ite (= zone 3) 31.75 (ite (= zone 4) 34.1 (ite (= zone 5) 38.8 (ite (= zone 6) 41.7 (ite (= zone 7) 44.5 (ite (= zone 8) 47.8 63.55)))))))) (ite (= weight 1.0) (ite (= zone 1) 31.95 (ite (= zone 2) 32.7 (ite (= zone 3) 34.45 (ite (= zone 4) 39.1 (ite (= zone 5) 46.35 (ite (= zone 6) 50.15 (ite (= zone 7) 53.3 (ite (= zone 8) 56.5 75.3)))))))) (ite (= weight 2.0) (ite (= zone 1) 32.45 (ite (= zone 2) 33.75 (ite (= zone 3) 37.25 (ite (= zone 4) 44.15 (ite (= zone 5) 53.85 (ite (= zone 6) 58.6 (ite (= zone 7) 62.05 (ite (= zone 8) 65.2 87.0)))))))) (ite (= weight 3.0) (ite (= zone 1) 32.95 (ite (= zone 2) 34.85 (ite (= zone 3) 40.0 (ite (= zone 4) 49.15 (ite (= zone 5) 61.45 (ite (= zone 6) 67.15 (ite (= zone 7) 70.9 (ite (= zone 8) 73.9 98.65)))))))) (ite (= weight 4.0) (ite (= zone 1) 33.5 (ite (= zone 2) 35.85 (ite (= zone 3) 42.8 (ite (= zone 4) 54.25 (ite (= zone 5) 69.0 (ite (= zone 6) 75.6 (ite (= zone 7) 79.65 (ite (= zone 8) 82.6 110.35)))))))) (ite (= weight 5.0) (ite (= zone 1) 34.0 (ite (= zone 2) 36.95 (ite (= zone 3) 45.5 (ite (= zone 4) 59.25 (ite (= zone 5) 76.5 (ite (= zone 6) 84.05 (ite (= zone 7) 88.5 (ite (= zone 8) 91.35 122.1)))))))) (ite (= weight 6.0) (ite (= zone 1) 37.4 (ite (= zone 2) 40.65 (ite (= zone 3) 50.0 (ite (= zone 4) 65.75 (ite (= zone 5) 84.0 (ite (= zone 6) 91.8 (ite (= zone 7) 96.85 (ite (= zone 8) 99.95 133.65)))))))) (ite (= weight 7.0) (ite (= zone 1) 40.85 (ite (= zone 2) 44.3 (ite (= zone 3) 54.45 (ite (= zone 4) 72.25 (ite (= zone 5) 91.5 (ite (= zone 6) 99.55 (ite (= zone 7) 105.2 (ite (= zone 8) 108.5 145.25)))))))) (ite (= weight 8.0) (ite (= zone 1) 44.25 (ite (= zone 2) 48.05 (ite (= zone 3) 58.95 (ite (= zone 4) 78.75 (ite (= zone 5) 98.95 (ite (= zone 6) 107.3 (ite (= zone 7) 113.55 (ite (= zone 8) 117.15 156.8)))))))) (ite (= weight 9.0) (ite (= zone 1) 47.75 (ite (= zone 2) 51.7 (ite (= zone 3) 63.35 (ite (= zone 4) 85.25 (ite (= zone 5) 106.45 (ite (= zone 6) 115.0 (ite (= zone 7) 121.95 (ite (= zone 8) 125.7 168.4)))))))) (ite (= weight 10.0) (ite (= zone 1) 51.15 (ite (= zone 2) 55.4 (ite (= zone 3) 67.85 (ite (= zone 4) 91.75 (ite (= zone 5) 113.95 (ite (= zone 6) 122.75 (ite (= zone 7) 130.3 (ite (= zone 8) 134.3 180.0)))))))) (ite (= weight 11.0) (ite (= zone 1) 53.6 (ite (= zone 2) 58.5 (ite (= zone 3) 72.9 (ite (= zone 4) 96.9 (ite (= zone 5) 119.0 (ite (= zone 6) 127.6 (ite (= zone 7) 135.35 (ite (= zone 8) 139.65 187.2)))))))) (ite (= weight 12.0) (ite (= zone 1) 56.05 (ite (= zone 2) 61.6 (ite (= zone 3) 77.95 (ite (= zone 4) 102.05 (ite (= zone 5) 124.05 (ite (= zone 6) 132.4 (ite (= zone 7) 140.45 (ite (= zone 8) 145.0 194.4)))))))) (ite (= weight 13.0) (ite (= zone 1) 58.5 (ite (= zone 2) 64.75 (ite (= zone 3) 83.1 (ite (= zone 4) 107.15 (ite (= zone 5) 129.1 (ite (= zone 6) 137.25 (ite (= zone 7) 145.5 (ite (= zone 8) 150.3 201.55)))))))) (ite (= weight 14.0) (ite (= zone 1) 61.0 (ite (= zone 2) 67.85 (ite (= zone 3) 88.15 (ite (= zone 4) 112.35 (ite (= zone 5) 134.15 (ite (= zone 6) 142.05 (ite (= zone 7) 150.55 (ite (= zone 8) 155.7 208.75)))))))) (ite (= weight 15.0) (ite (= zone 1) 63.4 (ite (= zone 2) 70.95 (ite (= zone 3) 93.2 (ite (= zone 4) 117.5 (ite (= zone 5) 139.25 (ite (= zone 6) 146.9 (ite (= zone 7) 155.65 (ite (= zone 8) 161.0 215.95)))))))) (ite (= weight 16.0) (ite (= zone 1) 65.9 (ite (= zone 2) 74.05 (ite (= zone 3) 98.25 (ite (= zone 4) 122.65 (ite (= zone 5) 144.35 (ite (= zone 6) 151.7 (ite (= zone 7) 160.75 (ite (= zone 8) 166.3 223.15)))))))) (ite (= weight 17.0) (ite (= zone 1) 68.35 (ite (= zone 2) 77.15 (ite (= zone 3) 103.3 (ite (= zone 4) 127.8 (ite (= zone 5) 149.4 (ite (= zone 6) 156.55 (ite (= zone 7) 165.8 (ite (= zone 8) 171.65 230.35)))))))) (ite (= weight 18.0) (ite (= zone 1) 70.85 (ite (= zone 2) 80.3 (ite (= zone 3) 108.4 (ite (= zone 4) 132.9 (ite (= zone 5) 154.45 (ite (= zone 6) 161.35 (ite (= zone 7) 170.85 (ite (= zone 8) 177.0 237.55)))))))) (ite (= weight 19.0) (ite (= zone 1) 73.25 (ite (= zone 2) 83.4 (ite (= zone 3) 113.45 (ite (= zone 4) 138.1 (ite (= zone 5) 159.5 (ite (= zone 6) 166.2 (ite (= zone 7) 175.95 (ite (= zone 8) 182.35 244.75)))))))) (ite (= weight 20.0) (ite (= zone 1) 75.75 (ite (= zone 2) 86.5 (ite (= zone 3) 118.55 (ite (= zone 4) 143.25 (ite (= zone 5) 164.55 (ite (= zone 6) 171.0 (ite (= zone 7) 181.0 (ite (= zone 8) 187.65 251.95)))))))) (ite (= weight 21.0) (ite (= zone 1) 78.65 (ite (= zone 2) 90.1 (ite (= zone 3) 124.2 (ite (= zone 4) 149.25 (ite (= zone 5) 171.2 (ite (= zone 6) 177.7 (ite (= zone 7) 188.0 (ite (= zone 8) 194.95 261.75)))))))) (ite (= weight 22.0) (ite (= zone 1) 81.6 (ite (= zone 2) 93.65 (ite (= zone 3) 129.9 (ite (= zone 4) 155.25 (ite (= zone 5) 177.9 (ite (= zone 6) 184.45 (ite (= zone 7) 194.95 (ite (= zone 8) 202.15 271.5)))))))) (ite (= weight 23.0) (ite (= zone 1) 84.45 (ite (= zone 2) 97.25 (ite (= zone 3) 135.55 (ite (= zone 4) 161.25 (ite (= zone 5) 184.55 (ite (= zone 6) 191.2 (ite (= zone 7) 201.9 (ite (= zone 8) 209.45 281.3)))))))) (ite (= weight 24.0) (ite (= zone 1) 87.35 (ite (= zone 2) 100.9 (ite (= zone 3) 141.25 (ite (= zone 4) 167.25 (ite (= zone 5) 191.25 (ite (= zone 6) 197.95 (ite (= zone 7) 208.9 (ite (= zone 8) 216.65 291.15)))))))) (ite (= weight 25.0) (ite (= zone 1) 90.3 (ite (= zone 2) 104.5 (ite (= zone 3) 146.9 (ite (= zone 4) 173.25 (ite (= zone 5) 197.9 (ite (= zone 6) 204.65 (ite (= zone 7) 215.85 (ite (= zone 8) 223.95 300.9)))))))) (ite (= weight 26.0) (ite (= zone 1) 93.2 (ite (= zone 2) 108.05 (ite (= zone 3) 152.6 (ite (= zone 4) 179.25 (ite (= zone 5) 204.6 (ite (= zone 6) 211.35 (ite (= zone 7) 222.8 (ite (= zone 8) 231.15 310.7)))))))) (ite (= weight 27.0) (ite (= zone 1) 96.1 (ite (= zone 2) 111.65 (ite (= zone 3) 158.25 (ite (= zone 4) 185.25 (ite (= zone 5) 211.25 (ite (= zone 6) 218.1 (ite (= zone 7) 229.75 (ite (= zone 8) 238.45 320.5)))))))) (ite (= weight 28.0) (ite (= zone 1) 99.0 (ite (= zone 2) 115.25 (ite (= zone 3) 164.0 (ite (= zone 4) 191.3 (ite (= zone 5) 217.9 (ite (= zone 6) 224.8 (ite (= zone 7) 236.75 (ite (= zone 8) 245.65 330.25)))))))) (ite (= weight 29.0) (ite (= zone 1) 101.9 (ite (= zone 2) 118.9 (ite (= zone 3) 169.65 (ite (= zone 4) 197.25 (ite (= zone 5) 224.55 (ite (= zone 6) 231.6 (ite (= zone 7) 243.7 (ite (= zone 8) 252.95 340.05)))))))) (ite (= weight 30.0) (ite (= zone 1) 104.8 (ite (= zone 2) 122.45 (ite (= zone 3) 175.35 (ite (= zone 4) 203.25 (ite (= zone 5) 231.25 (ite (= zone 6) 238.3 (ite (= zone 7) 250.65 (ite (= zone 8) 260.15 349.85)))))))) (ite (= weight 31.0) (ite (= zone 1) 107.75 (ite (= zone 2) 126.05 (ite (= zone 3) 181.0 (ite (= zone 4) 209.3 (ite (= zone 5) 237.95 (ite (= zone 6) 245.0 (ite (= zone 7) 257.65 (ite (= zone 8) 267.45 359.6)))))))) (ite (= weight 32.0) (ite (= zone 1) 110.65 (ite (= zone 2) 129.65 (ite (= zone 3) 186.7 (ite (= zone 4) 215.3 (ite (= zone 5) 244.6 (ite (= zone 6) 251.75 (ite (= zone 7) 264.6 (ite (= zone 8) 274.65 369.4)))))))) (ite (= weight 33.0) (ite (= zone 1) 113.5 (ite (= zone 2) 133.3 (ite (= zone 3) 192.35 (ite (= zone 4) 221.25 (ite (= zone 5) 251.25 (ite (= zone 6) 258.45 (ite (= zone 7) 271.55 (ite (= zone 8) 281.95 379.2)))))))) (ite (= weight 34.0) (ite (= zone 1) 116.45 (ite (= zone 2) 136.85 (ite (= zone 3) 198.05 (ite (= zone 4) 227.3 (ite (= zone 5) 257.95 (ite (= zone 6) 265.2 (ite (= zone 7) 278.55 (ite (= zone 8) 289.15 388.95)))))))) (ite (= weight 35.0) (ite (= zone 1) 119.35 (ite (= zone 2) 140.45 (ite (= zone 3) 203.7 (ite (= zone 4) 233.3 (ite (= zone 5) 264.6 (ite (= zone 6) 271.95 (ite (= zone 7) 285.5 (ite (= zone 8) 296.45 398.75)))))))) (ite (= weight 36.0) (ite (= zone 1) 122.45 (ite (= zone 2) 144.15 (ite (= zone 3) 209.2 (ite (= zone 4) 239.35 (ite (= zone 5) 271.65 (ite (= zone 6) 279.4 (ite (= zone 7) 293.25 (ite (= zone 8) 304.4 409.55)))))))) (ite (= weight 37.0) (ite (= zone 1) 125.15 (ite (= zone 2) 147.4 (ite (= zone 3) 214.3 (ite (= zone 4) 245.65 (ite (= zone 5) 278.6 (ite (= zone 6) 286.85 (ite (= zone 7) 300.95 (ite (= zone 8) 312.5 420.15)))))))) (ite (= weight 38.0) (ite (= zone 1) 128.0 (ite (= zone 2) 151.0 (ite (= zone 3) 219.8 (ite (= zone 4) 251.85 (ite (= zone 5) 285.55 (ite (= zone 6) 293.9 (ite (= zone 7) 308.3 (ite (= zone 8) 320.2 430.7)))))))) (ite (= weight 39.0) (ite (= zone 1) 131.2 (ite (= zone 2) 154.7 (ite (= zone 3) 225.15 (ite (= zone 4) 258.2 (ite (= zone 5) 292.45 (ite (= zone 6) 300.7 (ite (= zone 7) 315.45 (ite (= zone 8) 328.05 441.35)))))))) (ite (= weight 40.0) (ite (= zone 1) 134.0 (ite (= zone 2) 158.05 (ite (= zone 3) 230.25 (ite (= zone 4) 264.5 (ite (= zone 5) 299.55 (ite (= zone 6) 308.1 (ite (= zone 7) 322.9 (ite (= zone 8) 336.15 452.1)))))))) (ite (= weight 41.0) (ite (= zone 1) 137.0 (ite (= zone 2) 161.85 (ite (= zone 3) 236.35 (ite (= zone 4) 272.25 (ite (= zone 5) 308.15 (ite (= zone 6) 317.45 (ite (= zone 7) 332.65 (ite (= zone 8) 346.05 464.8)))))))) (ite (= weight 42.0) (ite (= zone 1) 139.45 (ite (= zone 2) 165.0 (ite (= zone 3) 241.75 (ite (= zone 4) 278.55 (ite (= zone 5) 314.9 (ite (= zone 6) 324.95 (ite (= zone 7) 340.25 (ite (= zone 8) 353.85 475.5)))))))) (ite (= weight 43.0) (ite (= zone 1) 142.65 (ite (= zone 2) 168.75 (ite (= zone 3) 247.0 (ite (= zone 4) 284.5 (ite (= zone 5) 321.9 (ite (= zone 6) 332.15 (ite (= zone 7) 347.7 (ite (= zone 8) 361.8 486.3)))))))) (ite (= weight 44.0) (ite (= zone 1) 145.3 (ite (= zone 2) 172.1 (ite (= zone 3) 252.45 (ite (= zone 4) 290.9 (ite (= zone 5) 328.85 (ite (= zone 6) 339.15 (ite (= zone 7) 355.15 (ite (= zone 8) 369.8 496.7)))))))) (ite (= weight 45.0) (ite (= zone 1) 148.1 (ite (= zone 2) 175.55 (ite (= zone 3) 257.75 (ite (= zone 4) 297.0 (ite (= zone 5) 335.55 (ite (= zone 6) 346.45 (ite (= zone 7) 362.7 (ite (= zone 8) 377.85 507.65)))))))) (ite (= weight 46.0) (ite (= zone 1) 150.95 (ite (= zone 2) 178.9 (ite (= zone 3) 262.9 (ite (= zone 4) 303.6 (ite (= zone 5) 342.7 (ite (= zone 6) 353.7 (ite (= zone 7) 369.95 (ite (= zone 8) 385.65 518.2)))))))) (ite (= weight 47.0) (ite (= zone 1) 154.15 (ite (= zone 2) 182.65 (ite (= zone 3) 268.25 (ite (= zone 4) 309.65 (ite (= zone 5) 349.55 (ite (= zone 6) 361.1 (ite (= zone 7) 377.65 (ite (= zone 8) 393.7 528.9)))))))) (ite (= weight 48.0) (ite (= zone 1) 156.7 (ite (= zone 2) 186.0 (ite (= zone 3) 273.85 (ite (= zone 4) 315.8 (ite (= zone 5) 356.3 (ite (= zone 6) 368.3 (ite (= zone 7) 385.1 (ite (= zone 8) 401.65 539.65)))))))) (ite (= weight 49.0) (ite (= zone 1) 159.6 (ite (= zone 2) 189.5 (ite (= zone 3) 278.9 (ite (= zone 4) 322.2 (ite (= zone 5) 363.2 (ite (= zone 6) 375.85 (ite (= zone 7) 392.8 (ite (= zone 8) 409.5 550.4)))))))) (ite (= weight 50.0) (ite (= zone 1) 162.95 (ite (= zone 2) 193.35 (ite (= zone 3) 284.4 (ite (= zone 4) 328.5 (ite (= zone 5) 370.25 (ite (= zone 6) 382.85 (ite (= zone 7) 400.0 (ite (= zone 8) 417.5 560.95)))))))) (ite (= weight 51.0) (ite (= zone 1) 165.8 (ite (= zone 2) 196.85 (ite (= zone 3) 289.85 (ite (= zone 4) 334.65 (ite (= zone 5) 377.05 (ite (= zone 6) 390.0 (ite (= zone 7) 407.4 (ite (= zone 8) 424.4 570.25)))))))) (ite (= weight 52.0) (ite (= zone 1) 168.65 (ite (= zone 2) 200.15 (ite (= zone 3) 294.75 (ite (= zone 4) 340.8 (ite (= zone 5) 383.8 (ite (= zone 6) 397.55 (ite (= zone 7) 415.0 (ite (= zone 8) 433.65 582.45)))))))) (ite (= weight 53.0) (ite (= zone 1) 171.4 (ite (= zone 2) 203.65 (ite (= zone 3) 300.35 (ite (= zone 4) 347.2 (ite (= zone 5) 390.65 (ite (= zone 6) 404.85 (ite (= zone 7) 422.55 (ite (= zone 8) 441.55 593.2)))))))) (ite (= weight 54.0) (ite (= zone 1) 174.45 (ite (= zone 2) 207.35 (ite (= zone 3) 305.75 (ite (= zone 4) 353.25 (ite (= zone 5) 397.3 (ite (= zone 6) 412.3 (ite (= zone 7) 430.1 (ite (= zone 8) 449.35 603.75)))))))) (ite (= weight 55.0) (ite (= zone 1) 177.9 (ite (= zone 2) 211.65 (ite (= zone 3) 312.75 (ite (= zone 4) 359.7 (ite (= zone 5) 404.35 (ite (= zone 6) 419.35 (ite (= zone 7) 437.35 (ite (= zone 8) 457.3 614.35)))))))) (ite (= weight 56.0) (ite (= zone 1) 182.35 (ite (= zone 2) 216.6 (ite (= zone 3) 319.45 (ite (= zone 4) 367.9 (ite (= zone 5) 413.4 (ite (= zone 6) 429.0 (ite (= zone 7) 447.55 (ite (= zone 8) 467.9 630.6)))))))) (ite (= weight 57.0) (ite (= zone 1) 185.5 (ite (= zone 2) 220.35 (ite (= zone 3) 324.8 (ite (= zone 4) 374.2 (ite (= zone 5) 420.45 (ite (= zone 6) 436.3 (ite (= zone 7) 454.85 (ite (= zone 8) 475.9 641.2)))))))) (ite (= weight 58.0) (ite (= zone 1) 188.65 (ite (= zone 2) 224.0 (ite (= zone 3) 329.95 (ite (= zone 4) 380.5 (ite (= zone 5) 427.2 (ite (= zone 6) 443.7 (ite (= zone 7) 462.45 (ite (= zone 8) 483.85 651.95)))))))) (ite (= weight 59.0) (ite (= zone 1) 191.25 (ite (= zone 2) 227.25 (ite (= zone 3) 335.3 (ite (= zone 4) 386.6 (ite (= zone 5) 433.95 (ite (= zone 6) 451.2 (ite (= zone 7) 469.95 (ite (= zone 8) 491.9 662.7)))))))) (ite (= weight 60.0) (ite (= zone 1) 193.85 (ite (= zone 2) 230.6 (ite (= zone 3) 340.75 (ite (= zone 4) 393.05 (ite (= zone 5) 440.85 (ite (= zone 6) 458.45 (ite (= zone 7) 477.4 (ite (= zone 8) 499.85 673.55)))))))) (ite (= weight 61.0) (ite (= zone 1) 196.55 (ite (= zone 2) 233.95 (ite (= zone 3) 346.15 (ite (= zone 4) 399.6 (ite (= zone 5) 448.15 (ite (= zone 6) 465.75 (ite (= zone 7) 484.9 (ite (= zone 8) 507.8 684.3)))))))) (ite (= weight 62.0) (ite (= zone 1) 199.7 (ite (= zone 2) 237.6 (ite (= zone 3) 351.4 (ite (= zone 4) 405.8 (ite (= zone 5) 454.6 (ite (= zone 6) 472.95 (ite (= zone 7) 492.3 (ite (= zone 8) 516.0 695.2)))))))) (ite (= weight 63.0) (ite (= zone 1) 202.9 (ite (= zone 2) 241.4 (ite (= zone 3) 356.7 (ite (= zone 4) 412.05 (ite (= zone 5) 461.5 (ite (= zone 6) 480.5 (ite (= zone 7) 499.9 (ite (= zone 8) 524.0 706.05)))))))) (ite (= weight 64.0) (ite (= zone 1) 205.75 (ite (= zone 2) 244.8 (ite (= zone 3) 361.95 (ite (= zone 4) 418.2 (ite (= zone 5) 468.2 (ite (= zone 6) 487.9 (ite (= zone 7) 507.5 (ite (= zone 8) 532.0 716.95)))))))) (ite (= weight 65.0) (ite (= zone 1) 209.2 (ite (= zone 2) 248.75 (ite (= zone 3) 367.35 (ite (= zone 4) 424.45 (ite (= zone 5) 475.0 (ite (= zone 6) 495.2 (ite (= zone 7) 514.6 (ite (= zone 8) 539.95 727.45)))))))) (ite (= weight 66.0) (ite (= zone 1) 213.1 (ite (= zone 2) 253.05 (ite (= zone 3) 372.85 (ite (= zone 4) 430.9 (ite (= zone 5) 481.95 (ite (= zone 6) 502.55 (ite (= zone 7) 522.1 (ite (= zone 8) 547.9 737.95)))))))) (ite (= weight 67.0) (ite (= zone 1) 215.65 (ite (= zone 2) 256.25 (ite (= zone 3) 378.05 (ite (= zone 4) 437.3 (ite (= zone 5) 488.85 (ite (= zone 6) 509.5 (ite (= zone 7) 529.25 (ite (= zone 8) 555.85 749.05)))))))) (ite (= weight 68.0) (ite (= zone 1) 218.4 (ite (= zone 2) 259.65 (ite (= zone 3) 383.4 (ite (= zone 4) 443.55 (ite (= zone 5) 495.45 (ite (= zone 6) 517.15 (ite (= zone 7) 537.1 (ite (= zone 8) 564.15 760.05)))))))) (ite (= weight 69.0) (ite (= zone 1) 221.9 (ite (= zone 2) 263.6 (ite (= zone 3) 388.85 (ite (= zone 4) 449.75 (ite (= zone 5) 502.35 (ite (= zone 6) 524.3 (ite (= zone 7) 544.35 (ite (= zone 8) 571.75 770.35)))))))) (ite (= weight 70.0) (ite (= zone 1) 225.85 (ite (= zone 2) 267.95 (ite (= zone 3) 394.3 (ite (= zone 4) 456.05 (ite (= zone 5) 509.15 (ite (= zone 6) 531.65 (ite (= zone 7) 551.75 (ite (= zone 8) 579.8 781.2)))))))) max)))))))))))))))))))))))))))))))))))))))))))))))))))))))))))))))))))))))))